c Generated map
c Size: 8 * 8, weights in range: 1 to 10, walls: True, with ratio 0.1
c dim 1 of 10
c
p sp 64 92
c graph contains 64 nodes and 92 arcs
c
a 1 9 2
a 9 1 2
a 1 2 3
a 2 1 3
a 2 10 1
a 10 2 1
a 2 3 7
a 3 2 7
a 3 11 8
a 11 3 8
a 3 4 10
a 4 3 10
a 4 12 4
a 12 4 4
a 4 5 9
a 5 4 9
a 5 13 1
a 13 5 1
a 5 6 4
a 6 5 4
a 6 14 9
a 14 6 9
a 6 7 8
a 7 6 8
a 7 8 6
a 8 7 6
a 8 16 4
a 16 8 4
a 9 17 6
a 17 9 6
a 9 10 10
a 10 9 10
a 10 18 3
a 18 10 3
a 10 11 8
a 11 10 8
a 11 19 2
a 19 11 2
a 11 12 7
a 12 11 7
a 12 20 1
a 20 12 1
a 12 13 7
a 13 12 7
a 13 21 8
a 21 13 8
a 13 14 7
a 14 13 7
a 16 24 6
a 24 16 6
a 17 25 8
a 25 17 8
a 17 18 7
a 18 17 7
a 18 26 7
a 26 18 7
a 18 19 7
a 19 18 7
a 19 27 9
a 27 19 9
a 19 20 4
a 20 19 4
a 20 28 6
a 28 20 6
a 20 21 3
a 21 20 3
a 21 29 7
a 29 21 7
a 23 31 1
a 31 23 1
a 23 24 2
a 24 23 2
a 24 32 2
a 32 24 2
a 25 33 4
a 33 25 4
a 25 26 2
a 26 25 2
a 26 34 6
a 34 26 6
a 26 27 5
a 27 26 5
a 27 35 7
a 35 27 7
a 27 28 6
a 28 27 6
a 28 36 2
a 36 28 2
a 28 29 7
a 29 28 7
a 29 37 4
a 37 29 4
a 29 30 3
a 30 29 3
a 30 38 10
a 38 30 10
a 30 31 8
a 31 30 8
a 31 39 9
a 39 31 9
a 31 32 10
a 32 31 10
a 32 40 7
a 40 32 7
a 33 41 8
a 41 33 8
a 33 34 4
a 34 33 4
a 34 42 7
a 42 34 7
a 34 35 1
a 35 34 1
a 35 43 6
a 43 35 6
a 35 36 1
a 36 35 1
a 36 44 6
a 44 36 6
a 36 37 1
a 37 36 1
a 37 38 10
a 38 37 10
a 38 46 2
a 46 38 2
a 38 39 3
a 39 38 3
a 39 47 5
a 47 39 5
a 39 40 1
a 40 39 1
a 41 49 4
a 49 41 4
a 41 42 2
a 42 41 2
a 42 50 3
a 50 42 3
a 42 43 5
a 43 42 5
a 43 51 5
a 51 43 5
a 43 44 1
a 44 43 1
a 44 52 10
a 52 44 10
a 46 54 9
a 54 46 9
a 46 47 5
a 47 46 5
a 47 55 6
a 55 47 6
a 49 57 3
a 57 49 3
a 49 50 6
a 50 49 6
a 50 58 4
a 58 50 4
a 50 51 2
a 51 50 2
a 51 59 6
a 59 51 6
a 51 52 1
a 52 51 1
a 52 53 5
a 53 52 5
a 53 54 5
a 54 53 5
a 54 62 5
a 62 54 5
a 54 55 10
a 55 54 10
a 55 63 7
a 63 55 7
a 55 56 1
a 56 55 1
a 56 64 6
a 64 56 6
a 57 58 9
a 58 57 9
a 58 59 2
a 59 58 2
a 62 63 4
a 63 62 4
a 63 64 7
a 64 63 7
